p tdp 20 49
1 3
1 4
1 12
1 13
2 6
2 9
2 12
2 16
2 17
2 19
3 5
3 7
3 12
4 6
4 7
4 16
4 20
5 6
5 9
5 10
5 11
6 11
6 12
6 16
7 10
7 13
7 15
7 18
8 9
8 16
9 14
9 19
10 11
10 15
11 14
11 19
11 20
12 13
12 14
12 15
14 16
14 17
14 19
14 20
16 18
16 19
17 18
18 20
19 20
